(set-logic HORN)
(set-info :source |
    Benchmark: C_VC
    Output by Princess (http://www.philipp.ruemmer.org/princess.shtml)
|)
(set-info :status unknown)
(declare-fun inv_main12 (Int Int Int Int Int Int Int) Bool)
(declare-fun inv_main13 (Int Int Int Int Int Int Int) Bool)
(declare-fun inv_main16 (Int Int Int Int Int Int Int) Bool)
(declare-fun inv_main17 (Int Int Int Int Int Int Int) Bool)
(declare-fun inv_main19 (Int Int Int Int Int Int Int) Bool)
(declare-fun inv_main20 (Int Int Int Int Int Int Int) Bool)
(declare-fun inv_main21 (Int Int Int Int Int Int Int) Bool)
(declare-fun inv_main22 (Int Int Int Int Int Int Int) Bool)
(declare-fun inv_main29 (Int Int Int Int Int Int Int) Bool)
(declare-fun inv_main3 (Int Int Int Int Int Int Int) Bool)
(declare-fun inv_main30 (Int Int Int Int Int Int Int) Bool)
(declare-fun inv_main31 (Int Int Int Int Int Int Int) Bool)
(declare-fun inv_main33 (Int Int Int Int Int Int Int) Bool)
(declare-fun inv_main34 (Int Int Int Int Int Int Int) Bool)
(declare-fun inv_main35 (Int Int Int Int Int Int Int) Bool)
(declare-fun inv_main36 (Int Int Int Int Int Int Int) Bool)
(declare-fun inv_main37 (Int Int Int Int Int Int Int) Bool)
(declare-fun inv_main38 (Int Int Int Int Int Int Int) Bool)
(declare-fun inv_main39 (Int Int Int Int Int Int Int) Bool)
(declare-fun inv_main40 (Int Int Int Int Int Int Int) Bool)
(declare-fun inv_main42 (Int Int Int Int Int Int Int) Bool)
(declare-fun inv_main43 (Int Int Int Int Int Int Int) Bool)
(declare-fun inv_main45 (Int Int Int Int Int Int Int) Bool)
(declare-fun inv_main46 (Int Int Int Int Int Int Int) Bool)
(declare-fun inv_main47 (Int Int Int Int Int Int Int) Bool)
(declare-fun inv_main48 (Int Int Int Int Int Int Int) Bool)
(declare-fun inv_main49 (Int Int Int Int Int Int Int) Bool)
(declare-fun inv_main50 (Int Int Int Int Int Int Int) Bool)
(declare-fun inv_main51 (Int Int Int Int Int Int Int) Bool)
(declare-fun inv_main53 (Int Int Int Int Int Int Int) Bool)
(declare-fun inv_main54 (Int Int Int Int Int Int Int) Bool)
(declare-fun inv_main55 (Int Int Int Int Int Int Int) Bool)
(declare-fun inv_main57 (Int Int Int Int Int Int Int) Bool)
(declare-fun inv_main59 (Int Int Int Int Int Int Int) Bool)
(declare-fun inv_main60 (Int Int Int Int Int Int Int) Bool)
(declare-fun inv_main61 (Int Int Int Int Int Int Int) Bool)
(declare-fun inv_main62 (Int Int Int Int Int Int Int) Bool)
(declare-fun inv_main63 (Int Int Int Int Int Int Int) Bool)
(declare-fun inv_main64 (Int Int Int Int Int Int Int) Bool)
(assert (forall ((var0 Int)) (forall ((var1 Int)) (forall ((var2 Int)) (forall ((var3 Int)) (forall ((var4 Int)) (forall ((var5 Int)) (inv_main3 0 var0 var3 var4 var5 var2 var1 ) ) ) ) ) ) ) )
(assert (forall ((var0 Int)) (forall ((var1 Int)) (forall ((var2 Int)) (forall ((var3 Int)) (forall ((var4 Int)) (forall ((var5 Int)) (forall ((var6 Int)) (or (not (inv_main12 var5 var6 var2 var0 var1 var4 var3 ) ) (inv_main13 var5 var6 var2 var0 var1 var4 var3 ) ) ) ) ) ) ) ) ) )
(assert (forall ((var0 Int)) (forall ((var1 Int)) (forall ((var2 Int)) (forall ((var3 Int)) (forall ((var4 Int)) (forall ((var5 Int)) (forall ((var6 Int)) (or (not (and (inv_main16 var5 var6 var2 var0 var1 var4 var3 ) (<= 0 (+ var6 (* (- 1) var0 ) ) ) ) ) (inv_main17 var5 var6 var2 var0 var1 var4 var3 ) ) ) ) ) ) ) ) ) )
(assert (forall ((var0 Int)) (forall ((var1 Int)) (forall ((var2 Int)) (forall ((var3 Int)) (forall ((var4 Int)) (forall ((var5 Int)) (forall ((var6 Int)) (or (not (inv_main17 var5 var6 var2 var0 var1 var4 var3 ) ) (inv_main19 var5 var6 var2 var0 var1 var4 var3 ) ) ) ) ) ) ) ) ) )
(assert (forall ((var0 Int)) (forall ((var1 Int)) (forall ((var2 Int)) (forall ((var3 Int)) (forall ((var4 Int)) (forall ((var5 Int)) (forall ((var6 Int)) (or (not (inv_main19 var5 var6 var2 var0 var1 var4 var3 ) ) (inv_main20 var5 var6 var2 var0 var1 var4 var3 ) ) ) ) ) ) ) ) ) )
(assert (forall ((var0 Int)) (forall ((var1 Int)) (forall ((var2 Int)) (forall ((var3 Int)) (forall ((var4 Int)) (forall ((var5 Int)) (forall ((var6 Int)) (or (not (inv_main20 var5 var6 var2 var0 var1 var4 var3 ) ) (inv_main21 var5 var6 var2 var0 var1 var4 var3 ) ) ) ) ) ) ) ) ) )
(assert (forall ((var0 Int)) (forall ((var1 Int)) (forall ((var2 Int)) (forall ((var3 Int)) (forall ((var4 Int)) (forall ((var5 Int)) (forall ((var6 Int)) (or (not (and (inv_main30 var5 var6 var2 var0 var1 var4 var3 ) (<= 0 (+ var3 (* (- 1) var1 ) ) ) ) ) (inv_main31 var5 var6 var2 var0 var1 var4 var3 ) ) ) ) ) ) ) ) ) )
(assert (forall ((var0 Int)) (forall ((var1 Int)) (forall ((var2 Int)) (forall ((var3 Int)) (forall ((var4 Int)) (forall ((var5 Int)) (forall ((var6 Int)) (or (not (and (inv_main30 var5 var6 var2 var0 var1 var4 var3 ) (not (<= 0 (+ var3 (* (- 1) var1 ) ) ) ) ) ) (inv_main29 var5 var6 var2 var0 var1 var4 var3 ) ) ) ) ) ) ) ) ) )
(assert (forall ((var0 Int)) (forall ((var1 Int)) (forall ((var2 Int)) (forall ((var3 Int)) (forall ((var4 Int)) (forall ((var5 Int)) (forall ((var6 Int)) (or (not (inv_main31 var5 var6 var2 var0 var1 var4 var3 ) ) (inv_main33 var5 var6 var2 var0 var1 var4 var3 ) ) ) ) ) ) ) ) ) )
(assert (forall ((var0 Int)) (forall ((var1 Int)) (forall ((var2 Int)) (forall ((var3 Int)) (forall ((var4 Int)) (forall ((var5 Int)) (forall ((var6 Int)) (or (not (inv_main33 var5 var6 var2 var0 var1 var4 var3 ) ) (inv_main34 var5 var6 var2 var0 var1 var4 var3 ) ) ) ) ) ) ) ) ) )
(assert (forall ((var0 Int)) (forall ((var1 Int)) (forall ((var2 Int)) (forall ((var3 Int)) (forall ((var4 Int)) (forall ((var5 Int)) (forall ((var6 Int)) (or (not (inv_main34 var5 var6 var2 var0 var1 var4 var3 ) ) (inv_main35 var5 var6 var2 var0 var1 var4 var3 ) ) ) ) ) ) ) ) ) )
(assert (forall ((var0 Int)) (forall ((var1 Int)) (forall ((var2 Int)) (forall ((var3 Int)) (forall ((var4 Int)) (forall ((var5 Int)) (forall ((var6 Int)) (or (not (inv_main35 var5 var6 var2 var0 var1 var4 var3 ) ) (inv_main36 var5 var6 var2 var0 var1 var4 var3 ) ) ) ) ) ) ) ) ) )
(assert (forall ((var0 Int)) (forall ((var1 Int)) (forall ((var2 Int)) (forall ((var3 Int)) (forall ((var4 Int)) (forall ((var5 Int)) (forall ((var6 Int)) (or (not (inv_main36 var5 var6 var2 var0 var1 var4 var3 ) ) (inv_main37 var5 var6 var2 var0 var1 var4 var3 ) ) ) ) ) ) ) ) ) )
(assert (forall ((var0 Int)) (forall ((var1 Int)) (forall ((var2 Int)) (forall ((var3 Int)) (forall ((var4 Int)) (forall ((var5 Int)) (forall ((var6 Int)) (or (not (inv_main29 var5 var6 var2 var0 var1 var4 var3 ) ) (inv_main38 var5 var6 var2 var0 var1 var4 var3 ) ) ) ) ) ) ) ) ) )
(assert (forall ((var0 Int)) (forall ((var1 Int)) (forall ((var2 Int)) (forall ((var3 Int)) (forall ((var4 Int)) (forall ((var5 Int)) (forall ((var6 Int)) (or (not (inv_main38 var5 var6 var2 var0 var1 var4 var3 ) ) (inv_main39 var5 var6 var2 var0 var1 var4 var3 ) ) ) ) ) ) ) ) ) )
(assert (forall ((var0 Int)) (forall ((var1 Int)) (forall ((var2 Int)) (forall ((var3 Int)) (forall ((var4 Int)) (forall ((var5 Int)) (forall ((var6 Int)) (or (not (inv_main39 var5 var6 var2 var0 var1 var4 var3 ) ) (inv_main40 var5 var6 var2 var0 var1 var4 var3 ) ) ) ) ) ) ) ) ) )
(assert (forall ((var0 Int)) (forall ((var1 Int)) (forall ((var2 Int)) (forall ((var3 Int)) (forall ((var4 Int)) (forall ((var5 Int)) (forall ((var6 Int)) (or (not (and (inv_main42 var5 var6 var2 var0 var1 var4 var3 ) (<= 0 (+ var3 (* (- 1) var1 ) ) ) ) ) (inv_main43 var5 var6 var2 var0 var1 var4 var3 ) ) ) ) ) ) ) ) ) )
(assert (forall ((var0 Int)) (forall ((var1 Int)) (forall ((var2 Int)) (forall ((var3 Int)) (forall ((var4 Int)) (forall ((var5 Int)) (forall ((var6 Int)) (or (not (inv_main43 var5 var6 var2 var0 var1 var4 var3 ) ) (inv_main45 var5 var6 var2 var0 var1 var4 var3 ) ) ) ) ) ) ) ) ) )
(assert (forall ((var0 Int)) (forall ((var1 Int)) (forall ((var2 Int)) (forall ((var3 Int)) (forall ((var4 Int)) (forall ((var5 Int)) (forall ((var6 Int)) (or (not (inv_main45 var5 var6 var2 var0 var1 var4 var3 ) ) (inv_main46 var5 var6 var2 var0 var1 var4 var3 ) ) ) ) ) ) ) ) ) )
(assert (forall ((var0 Int)) (forall ((var1 Int)) (forall ((var2 Int)) (forall ((var3 Int)) (forall ((var4 Int)) (forall ((var5 Int)) (forall ((var6 Int)) (or (not (inv_main46 var5 var6 var2 var0 var1 var4 var3 ) ) (inv_main47 var5 var6 var2 var0 var1 var4 var3 ) ) ) ) ) ) ) ) ) )
(assert (forall ((var0 Int)) (forall ((var1 Int)) (forall ((var2 Int)) (forall ((var3 Int)) (forall ((var4 Int)) (forall ((var5 Int)) (forall ((var6 Int)) (or (not (inv_main47 var5 var6 var2 var0 var1 var4 var3 ) ) (inv_main48 var5 var6 var2 var0 var1 var4 var3 ) ) ) ) ) ) ) ) ) )
(assert (forall ((var0 Int)) (forall ((var1 Int)) (forall ((var2 Int)) (forall ((var3 Int)) (forall ((var4 Int)) (forall ((var5 Int)) (forall ((var6 Int)) (or (not (inv_main48 var5 var6 var2 var0 var1 var4 var3 ) ) (inv_main49 var5 var6 var2 var0 var1 var4 var3 ) ) ) ) ) ) ) ) ) )
(assert (forall ((var0 Int)) (forall ((var1 Int)) (forall ((var2 Int)) (forall ((var3 Int)) (forall ((var4 Int)) (forall ((var5 Int)) (forall ((var6 Int)) (or (not (and (inv_main50 var5 var6 var2 var0 var1 var4 var3 ) (<= 0 (+ var3 (* (- 1) var0 ) ) ) ) ) (inv_main51 var5 var6 var2 var0 var1 var4 var3 ) ) ) ) ) ) ) ) ) )
(assert (forall ((var0 Int)) (forall ((var1 Int)) (forall ((var2 Int)) (forall ((var3 Int)) (forall ((var4 Int)) (forall ((var5 Int)) (forall ((var6 Int)) (or (not (and (inv_main50 var5 var6 var2 var0 var1 var4 var3 ) (not (<= 0 (+ var3 (* (- 1) var0 ) ) ) ) ) ) (inv_main22 var5 var6 var2 var0 var1 var4 var3 ) ) ) ) ) ) ) ) ) )
(assert (forall ((var0 Int)) (forall ((var1 Int)) (forall ((var2 Int)) (forall ((var3 Int)) (forall ((var4 Int)) (forall ((var5 Int)) (forall ((var6 Int)) (or (not (inv_main51 var5 var6 var2 var0 var1 var4 var3 ) ) (inv_main53 var5 var6 var2 var0 var1 var4 var3 ) ) ) ) ) ) ) ) ) )
(assert (forall ((var0 Int)) (forall ((var1 Int)) (forall ((var2 Int)) (forall ((var3 Int)) (forall ((var4 Int)) (forall ((var5 Int)) (forall ((var6 Int)) (or (not (inv_main53 var5 var6 var2 var0 var1 var4 var3 ) ) (inv_main54 var5 var6 var2 var0 var1 var4 var3 ) ) ) ) ) ) ) ) ) )
(assert (forall ((var0 Int)) (forall ((var1 Int)) (forall ((var2 Int)) (forall ((var3 Int)) (forall ((var4 Int)) (forall ((var5 Int)) (forall ((var6 Int)) (or (not (inv_main54 var5 var6 var2 var0 var1 var4 var3 ) ) (inv_main55 var5 var6 var2 var0 var1 var4 var3 ) ) ) ) ) ) ) ) ) )
(assert (forall ((var0 Int)) (forall ((var1 Int)) (forall ((var2 Int)) (forall ((var3 Int)) (forall ((var4 Int)) (forall ((var5 Int)) (forall ((var6 Int)) (or (not (inv_main57 var5 var6 var2 var0 var1 var4 var3 ) ) (inv_main59 var5 var6 var2 var0 var1 var4 var3 ) ) ) ) ) ) ) ) ) )
(assert (forall ((var0 Int)) (forall ((var1 Int)) (forall ((var2 Int)) (forall ((var3 Int)) (forall ((var4 Int)) (forall ((var5 Int)) (forall ((var6 Int)) (or (not (inv_main59 var5 var6 var2 var0 var1 var4 var3 ) ) (inv_main60 var5 var6 var2 var0 var1 var4 var3 ) ) ) ) ) ) ) ) ) )
(assert (forall ((var0 Int)) (forall ((var1 Int)) (forall ((var2 Int)) (forall ((var3 Int)) (forall ((var4 Int)) (forall ((var5 Int)) (forall ((var6 Int)) (or (not (inv_main60 var5 var6 var2 var0 var1 var4 var3 ) ) (inv_main61 var5 var6 var2 var0 var1 var4 var3 ) ) ) ) ) ) ) ) ) )
(assert (forall ((var0 Int)) (forall ((var1 Int)) (forall ((var2 Int)) (forall ((var3 Int)) (forall ((var4 Int)) (forall ((var5 Int)) (forall ((var6 Int)) (or (not (inv_main22 var5 var6 var2 var0 var1 var4 var3 ) ) (inv_main62 var5 var6 var2 var0 var1 var4 var3 ) ) ) ) ) ) ) ) ) )
(assert (forall ((var0 Int)) (forall ((var1 Int)) (forall ((var2 Int)) (forall ((var3 Int)) (forall ((var4 Int)) (forall ((var5 Int)) (forall ((var6 Int)) (or (not (inv_main62 var5 var6 var2 var0 var1 var4 var3 ) ) (inv_main63 var5 var6 var2 var0 var1 var4 var3 ) ) ) ) ) ) ) ) ) )
(assert (forall ((var0 Int)) (forall ((var1 Int)) (forall ((var2 Int)) (forall ((var3 Int)) (forall ((var4 Int)) (forall ((var5 Int)) (forall ((var6 Int)) (or (not (inv_main63 var5 var6 var2 var0 var1 var4 var3 ) ) (inv_main64 var5 var6 var2 var0 var1 var4 var3 ) ) ) ) ) ) ) ) ) )
(assert (forall ((var0 Int)) (forall ((var1 Int)) (forall ((var2 Int)) (forall ((var3 Int)) (forall ((var4 Int)) (forall ((var5 Int)) (forall ((var6 Int)) (or (not (inv_main13 var5 var6 var2 var0 var1 var4 var3 ) ) (inv_main16 var5 var6 var2 var4 var1 var4 var3 ) ) ) ) ) ) ) ) ) )
(assert (forall ((var0 Int)) (forall ((var1 Int)) (forall ((var2 Int)) (forall ((var3 Int)) (forall ((var4 Int)) (forall ((var5 Int)) (forall ((var6 Int)) (or (not (inv_main21 var5 var6 var2 var0 var1 var4 var3 ) ) (inv_main16 var5 var6 var2 (+ var0 1 ) var1 var4 var3 ) ) ) ) ) ) ) ) ) )
(assert (forall ((var0 Int)) (forall ((var1 Int)) (forall ((var2 Int)) (forall ((var3 Int)) (forall ((var4 Int)) (forall ((var5 Int)) (forall ((var6 Int)) (or (not (inv_main37 var5 var6 var2 var0 var1 var4 var3 ) ) (inv_main30 var5 var6 var2 var0 (+ var1 1 ) var4 var3 ) ) ) ) ) ) ) ) ) )
(assert (forall ((var0 Int)) (forall ((var1 Int)) (forall ((var2 Int)) (forall ((var3 Int)) (forall ((var4 Int)) (forall ((var5 Int)) (forall ((var6 Int)) (or (not (inv_main40 var5 var6 var2 var0 var1 var4 var3 ) ) (inv_main42 var5 var6 var2 var0 var2 var4 var3 ) ) ) ) ) ) ) ) ) )
(assert (forall ((var0 Int)) (forall ((var1 Int)) (forall ((var2 Int)) (forall ((var3 Int)) (forall ((var4 Int)) (forall ((var5 Int)) (forall ((var6 Int)) (or (not (inv_main49 var5 var6 var2 var0 var1 var4 var3 ) ) (inv_main42 var5 var6 var2 var0 (+ var1 1 ) var4 var3 ) ) ) ) ) ) ) ) ) )
(assert (forall ((var0 Int)) (forall ((var1 Int)) (forall ((var2 Int)) (forall ((var3 Int)) (forall ((var4 Int)) (forall ((var5 Int)) (forall ((var6 Int)) (or (not (inv_main55 var5 var6 var2 var0 var1 var4 var3 ) ) (inv_main50 var5 var6 var2 (+ var0 1 ) var1 var4 var3 ) ) ) ) ) ) ) ) ) )
(assert (forall ((var0 Int)) (forall ((var1 Int)) (forall ((var2 Int)) (forall ((var3 Int)) (forall ((var4 Int)) (forall ((var5 Int)) (forall ((var6 Int)) (or (not (and (inv_main16 var5 var6 var2 var0 var1 var4 var3 ) (and (<= 0 (+ var6 (* (- 1) var4 ) ) ) (and (not (= var5 0 ) ) (not (<= 0 (+ var6 (* (- 1) var0 ) ) ) ) ) ) ) ) (inv_main30 var5 var6 var2 var4 var4 var4 var3 ) ) ) ) ) ) ) ) ) )
(assert (forall ((var0 Int)) (forall ((var1 Int)) (forall ((var2 Int)) (forall ((var3 Int)) (forall ((var4 Int)) (forall ((var5 Int)) (forall ((var6 Int)) (or (not (and (inv_main16 var5 var6 var2 var0 var1 var4 var3 ) (and (not (<= 0 (+ var6 (* (- 1) var4 ) ) ) ) (and (not (= var5 0 ) ) (not (<= 0 (+ var6 (* (- 1) var0 ) ) ) ) ) ) ) ) (inv_main50 var5 var6 var2 var2 var1 var4 var3 ) ) ) ) ) ) ) ) ) )
(assert (forall ((var0 Int)) (forall ((var1 Int)) (forall ((var2 Int)) (forall ((var3 Int)) (forall ((var4 Int)) (forall ((var5 Int)) (forall ((var6 Int)) (or (not (and (inv_main42 var5 var6 var2 var0 var1 var4 var3 ) (and (<= 0 (+ var6 (* (- 1) (+ var0 1 ) ) ) ) (not (<= 0 (+ var3 (* (- 1) var1 ) ) ) ) ) ) ) (inv_main30 var5 var6 var2 (+ var0 1 ) var4 var4 var3 ) ) ) ) ) ) ) ) ) )
(assert (forall ((var0 Int)) (forall ((var1 Int)) (forall ((var2 Int)) (forall ((var3 Int)) (forall ((var4 Int)) (forall ((var5 Int)) (forall ((var6 Int)) (or (not (and (inv_main42 var5 var6 var2 var0 var1 var4 var3 ) (and (not (<= 0 (+ var6 (* (- 1) (+ var0 1 ) ) ) ) ) (not (<= 0 (+ var3 (* (- 1) var1 ) ) ) ) ) ) ) (inv_main50 var5 var6 var2 var2 var1 var4 var3 ) ) ) ) ) ) ) ) ) )
(assert (forall ((var0 Int)) (forall ((var1 Int)) (forall ((var2 Int)) (forall ((var3 Int)) (forall ((var4 Int)) (forall ((var5 Int)) (forall ((var6 Int)) (or (not (and (inv_main16 var5 var6 var2 var0 var1 var4 var3 ) (and (<= 0 (+ var3 (* (- 1) var2 ) ) ) (and (= var5 0 ) (not (<= 0 (+ var6 (* (- 1) var0 ) ) ) ) ) ) ) ) (inv_main57 var5 var6 var2 var2 var1 var4 var3 ) ) ) ) ) ) ) ) ) )
(assert (forall ((var0 Int)) (forall ((var1 Int)) (forall ((var2 Int)) (forall ((var3 Int)) (forall ((var4 Int)) (forall ((var5 Int)) (forall ((var6 Int)) (or (not (and (inv_main16 var5 var6 var2 var0 var1 var4 var3 ) (and (not (<= 0 (+ var3 (* (- 1) var2 ) ) ) ) (and (= var5 0 ) (not (<= 0 (+ var6 (* (- 1) var0 ) ) ) ) ) ) ) ) (inv_main22 var5 var6 var2 var2 var1 var4 var3 ) ) ) ) ) ) ) ) ) )
(assert (forall ((var0 Int)) (forall ((var1 Int)) (forall ((var2 Int)) (forall ((var3 Int)) (forall ((var4 Int)) (forall ((var5 Int)) (forall ((var6 Int)) (or (not (and (inv_main61 var5 var6 var2 var0 var1 var4 var3 ) (<= 0 (+ var3 (* (- 1) (+ var0 1 ) ) ) ) ) ) (inv_main57 var5 var6 var2 (+ var0 1 ) var1 var4 var3 ) ) ) ) ) ) ) ) ) )
(assert (forall ((var0 Int)) (forall ((var1 Int)) (forall ((var2 Int)) (forall ((var3 Int)) (forall ((var4 Int)) (forall ((var5 Int)) (forall ((var6 Int)) (or (not (and (inv_main61 var5 var6 var2 var0 var1 var4 var3 ) (not (<= 0 (+ var3 (* (- 1) (+ var0 1 ) ) ) ) ) ) ) (inv_main22 var5 var6 var2 (+ var0 1 ) var1 var4 var3 ) ) ) ) ) ) ) ) ) )
(assert (forall ((var0 Int)) (forall ((var1 Int)) (forall ((var2 Int)) (forall ((var3 Int)) (forall ((var4 Int)) (forall ((var5 Int)) (forall ((var6 Int)) (or (not (and (inv_main64 var5 var6 var2 var0 var1 var4 var3 ) (<= 0 (+ (+ var2 (- 1) ) (- 1) ) ) ) ) (inv_main12 var5 var6 (+ var2 (- 1) ) var0 var1 (+ (+ var2 (- 1) ) 1 ) var3 ) ) ) ) ) ) ) ) ) )
(assert (forall ((var0 Int)) (forall ((var1 Int)) (forall ((var2 Int)) (forall ((var3 Int)) (forall ((var4 Int)) (forall ((var5 Int)) (forall ((var6 Int)) (or (not (and (inv_main3 var5 var6 var2 var0 var1 var4 var3 ) (and (<= 0 (+ var3 (- 1) ) ) (and (<= 0 (+ var6 (* (- 1) var3 ) ) ) (<= 0 (+ (+ var6 (* (- 1) var3 ) ) (- 1) ) ) ) ) ) ) (inv_main12 var5 var6 var3 var0 var1 (+ var3 1 ) var3 ) ) ) ) ) ) ) ) ) )
(assert (forall ((var0 Int)) (forall ((var1 Int)) (forall ((var2 Int)) (forall ((var3 Int)) (forall ((var4 Int)) (forall ((var5 Int)) (forall ((var6 Int)) (or (not (and (inv_main3 var5 var6 var2 var0 var1 var4 var3 ) (and (<= 0 (+ var6 (- 1) ) ) (and (not (<= 0 (+ var6 (* (- 1) var3 ) ) ) ) (<= 0 (+ (+ var6 (* (- 1) var3 ) ) (- 1) ) ) ) ) ) ) (inv_main12 var5 var6 var6 var0 var1 (+ var6 1 ) var3 ) ) ) ) ) ) ) ) ) )
(assert (forall ((var0 Int)) (forall ((var1 Int)) (forall ((var2 Int)) (forall ((var3 Int)) (forall ((var4 Int)) (forall ((var5 Int)) (forall ((var6 Int)) (not (and (inv_main12 var5 var6 var2 var0 var1 var4 var3 ) (not (<= 0 (+ var2 (- 1) ) ) ) ) ) ) ) ) ) ) ) ) )
(assert (forall ((var0 Int)) (forall ((var1 Int)) (forall ((var2 Int)) (forall ((var3 Int)) (forall ((var4 Int)) (forall ((var5 Int)) (forall ((var6 Int)) (not (and (inv_main13 var5 var6 var2 var0 var1 var4 var3 ) (not (<= 0 (+ var6 (* (- 1) var2 ) ) ) ) ) ) ) ) ) ) ) ) ) )
(assert (forall ((var0 Int)) (forall ((var1 Int)) (forall ((var2 Int)) (forall ((var3 Int)) (forall ((var4 Int)) (forall ((var5 Int)) (forall ((var6 Int)) (not (and (inv_main17 var5 var6 var2 var0 var1 var4 var3 ) (not (<= 0 (+ var2 (- 1) ) ) ) ) ) ) ) ) ) ) ) ) )
(assert (forall ((var0 Int)) (forall ((var1 Int)) (forall ((var2 Int)) (forall ((var3 Int)) (forall ((var4 Int)) (forall ((var5 Int)) (forall ((var6 Int)) (not (and (inv_main19 var5 var6 var2 var0 var1 var4 var3 ) (not (<= 0 (+ var3 (* (- 1) var2 ) ) ) ) ) ) ) ) ) ) ) ) ) )
(assert (forall ((var0 Int)) (forall ((var1 Int)) (forall ((var2 Int)) (forall ((var3 Int)) (forall ((var4 Int)) (forall ((var5 Int)) (forall ((var6 Int)) (not (and (inv_main20 var5 var6 var2 var0 var1 var4 var3 ) (not (<= 0 (+ var0 (- 1) ) ) ) ) ) ) ) ) ) ) ) ) )
(assert (forall ((var0 Int)) (forall ((var1 Int)) (forall ((var2 Int)) (forall ((var3 Int)) (forall ((var4 Int)) (forall ((var5 Int)) (forall ((var6 Int)) (not (and (inv_main21 var5 var6 var2 var0 var1 var4 var3 ) (not (<= 0 (+ var6 (* (- 1) var0 ) ) ) ) ) ) ) ) ) ) ) ) ) )
(assert (forall ((var0 Int)) (forall ((var1 Int)) (forall ((var2 Int)) (forall ((var3 Int)) (forall ((var4 Int)) (forall ((var5 Int)) (forall ((var6 Int)) (not (and (inv_main31 var5 var6 var2 var0 var1 var4 var3 ) (not (<= 0 (+ var1 (- 1) ) ) ) ) ) ) ) ) ) ) ) ) )
(assert (forall ((var0 Int)) (forall ((var1 Int)) (forall ((var2 Int)) (forall ((var3 Int)) (forall ((var4 Int)) (forall ((var5 Int)) (forall ((var6 Int)) (not (and (inv_main33 var5 var6 var2 var0 var1 var4 var3 ) (not (<= 0 (+ var3 (* (- 1) var1 ) ) ) ) ) ) ) ) ) ) ) ) ) )
(assert (forall ((var0 Int)) (forall ((var1 Int)) (forall ((var2 Int)) (forall ((var3 Int)) (forall ((var4 Int)) (forall ((var5 Int)) (forall ((var6 Int)) (not (and (inv_main34 var5 var6 var2 var0 var1 var4 var3 ) (not (<= 0 (+ var2 (- 1) ) ) ) ) ) ) ) ) ) ) ) ) )
(assert (forall ((var0 Int)) (forall ((var1 Int)) (forall ((var2 Int)) (forall ((var3 Int)) (forall ((var4 Int)) (forall ((var5 Int)) (forall ((var6 Int)) (not (and (inv_main35 var5 var6 var2 var0 var1 var4 var3 ) (not (<= 0 (+ var6 (* (- 1) var2 ) ) ) ) ) ) ) ) ) ) ) ) ) )
(assert (forall ((var0 Int)) (forall ((var1 Int)) (forall ((var2 Int)) (forall ((var3 Int)) (forall ((var4 Int)) (forall ((var5 Int)) (forall ((var6 Int)) (not (and (inv_main36 var5 var6 var2 var0 var1 var4 var3 ) (not (<= 0 (+ var0 (- 1) ) ) ) ) ) ) ) ) ) ) ) ) )
(assert (forall ((var0 Int)) (forall ((var1 Int)) (forall ((var2 Int)) (forall ((var3 Int)) (forall ((var4 Int)) (forall ((var5 Int)) (forall ((var6 Int)) (not (and (inv_main37 var5 var6 var2 var0 var1 var4 var3 ) (not (<= 0 (+ var6 (* (- 1) var0 ) ) ) ) ) ) ) ) ) ) ) ) ) )
(assert (forall ((var0 Int)) (forall ((var1 Int)) (forall ((var2 Int)) (forall ((var3 Int)) (forall ((var4 Int)) (forall ((var5 Int)) (forall ((var6 Int)) (not (and (inv_main29 var5 var6 var2 var0 var1 var4 var3 ) (not (<= 0 (+ var2 (- 1) ) ) ) ) ) ) ) ) ) ) ) ) )
(assert (forall ((var0 Int)) (forall ((var1 Int)) (forall ((var2 Int)) (forall ((var3 Int)) (forall ((var4 Int)) (forall ((var5 Int)) (forall ((var6 Int)) (not (and (inv_main38 var5 var6 var2 var0 var1 var4 var3 ) (not (<= 0 (+ var3 (* (- 1) var2 ) ) ) ) ) ) ) ) ) ) ) ) ) )
(assert (forall ((var0 Int)) (forall ((var1 Int)) (forall ((var2 Int)) (forall ((var3 Int)) (forall ((var4 Int)) (forall ((var5 Int)) (forall ((var6 Int)) (not (and (inv_main39 var5 var6 var2 var0 var1 var4 var3 ) (not (<= 0 (+ var2 (- 1) ) ) ) ) ) ) ) ) ) ) ) ) )
(assert (forall ((var0 Int)) (forall ((var1 Int)) (forall ((var2 Int)) (forall ((var3 Int)) (forall ((var4 Int)) (forall ((var5 Int)) (forall ((var6 Int)) (not (and (inv_main40 var5 var6 var2 var0 var1 var4 var3 ) (not (<= 0 (+ var6 (* (- 1) var2 ) ) ) ) ) ) ) ) ) ) ) ) ) )
(assert (forall ((var0 Int)) (forall ((var1 Int)) (forall ((var2 Int)) (forall ((var3 Int)) (forall ((var4 Int)) (forall ((var5 Int)) (forall ((var6 Int)) (not (and (inv_main43 var5 var6 var2 var0 var1 var4 var3 ) (not (<= 0 (+ var1 (- 1) ) ) ) ) ) ) ) ) ) ) ) ) )
(assert (forall ((var0 Int)) (forall ((var1 Int)) (forall ((var2 Int)) (forall ((var3 Int)) (forall ((var4 Int)) (forall ((var5 Int)) (forall ((var6 Int)) (not (and (inv_main45 var5 var6 var2 var0 var1 var4 var3 ) (not (<= 0 (+ var3 (* (- 1) var1 ) ) ) ) ) ) ) ) ) ) ) ) ) )
(assert (forall ((var0 Int)) (forall ((var1 Int)) (forall ((var2 Int)) (forall ((var3 Int)) (forall ((var4 Int)) (forall ((var5 Int)) (forall ((var6 Int)) (not (and (inv_main46 var5 var6 var2 var0 var1 var4 var3 ) (not (<= 0 (+ var0 (- 1) ) ) ) ) ) ) ) ) ) ) ) ) )
(assert (forall ((var0 Int)) (forall ((var1 Int)) (forall ((var2 Int)) (forall ((var3 Int)) (forall ((var4 Int)) (forall ((var5 Int)) (forall ((var6 Int)) (not (and (inv_main47 var5 var6 var2 var0 var1 var4 var3 ) (not (<= 0 (+ var6 (* (- 1) var0 ) ) ) ) ) ) ) ) ) ) ) ) ) )
(assert (forall ((var0 Int)) (forall ((var1 Int)) (forall ((var2 Int)) (forall ((var3 Int)) (forall ((var4 Int)) (forall ((var5 Int)) (forall ((var6 Int)) (not (and (inv_main48 var5 var6 var2 var0 var1 var4 var3 ) (not (<= 0 (+ var2 (- 1) ) ) ) ) ) ) ) ) ) ) ) ) )
(assert (forall ((var0 Int)) (forall ((var1 Int)) (forall ((var2 Int)) (forall ((var3 Int)) (forall ((var4 Int)) (forall ((var5 Int)) (forall ((var6 Int)) (not (and (inv_main49 var5 var6 var2 var0 var1 var4 var3 ) (not (<= 0 (+ var6 (* (- 1) var2 ) ) ) ) ) ) ) ) ) ) ) ) ) )
(assert (forall ((var0 Int)) (forall ((var1 Int)) (forall ((var2 Int)) (forall ((var3 Int)) (forall ((var4 Int)) (forall ((var5 Int)) (forall ((var6 Int)) (not (and (inv_main51 var5 var6 var2 var0 var1 var4 var3 ) (not (<= 0 (+ var0 (- 1) ) ) ) ) ) ) ) ) ) ) ) ) )
(assert (forall ((var0 Int)) (forall ((var1 Int)) (forall ((var2 Int)) (forall ((var3 Int)) (forall ((var4 Int)) (forall ((var5 Int)) (forall ((var6 Int)) (not (and (inv_main53 var5 var6 var2 var0 var1 var4 var3 ) (not (<= 0 (+ var3 (* (- 1) var0 ) ) ) ) ) ) ) ) ) ) ) ) ) )
(assert (forall ((var0 Int)) (forall ((var1 Int)) (forall ((var2 Int)) (forall ((var3 Int)) (forall ((var4 Int)) (forall ((var5 Int)) (forall ((var6 Int)) (not (and (inv_main54 var5 var6 var2 var0 var1 var4 var3 ) (not (<= 0 (+ var2 (- 1) ) ) ) ) ) ) ) ) ) ) ) ) )
(assert (forall ((var0 Int)) (forall ((var1 Int)) (forall ((var2 Int)) (forall ((var3 Int)) (forall ((var4 Int)) (forall ((var5 Int)) (forall ((var6 Int)) (not (and (inv_main55 var5 var6 var2 var0 var1 var4 var3 ) (not (<= 0 (+ var6 (* (- 1) var2 ) ) ) ) ) ) ) ) ) ) ) ) ) )
(assert (forall ((var0 Int)) (forall ((var1 Int)) (forall ((var2 Int)) (forall ((var3 Int)) (forall ((var4 Int)) (forall ((var5 Int)) (forall ((var6 Int)) (not (and (inv_main57 var5 var6 var2 var0 var1 var4 var3 ) (not (<= 0 (+ var0 (- 1) ) ) ) ) ) ) ) ) ) ) ) ) )
(assert (forall ((var0 Int)) (forall ((var1 Int)) (forall ((var2 Int)) (forall ((var3 Int)) (forall ((var4 Int)) (forall ((var5 Int)) (forall ((var6 Int)) (not (and (inv_main59 var5 var6 var2 var0 var1 var4 var3 ) (not (<= 0 (+ var3 (* (- 1) var0 ) ) ) ) ) ) ) ) ) ) ) ) ) )
(assert (forall ((var0 Int)) (forall ((var1 Int)) (forall ((var2 Int)) (forall ((var3 Int)) (forall ((var4 Int)) (forall ((var5 Int)) (forall ((var6 Int)) (not (and (inv_main60 var5 var6 var2 var0 var1 var4 var3 ) (not (<= 0 (+ var2 (- 1) ) ) ) ) ) ) ) ) ) ) ) ) )
(assert (forall ((var0 Int)) (forall ((var1 Int)) (forall ((var2 Int)) (forall ((var3 Int)) (forall ((var4 Int)) (forall ((var5 Int)) (forall ((var6 Int)) (not (and (inv_main61 var5 var6 var2 var0 var1 var4 var3 ) (not (<= 0 (+ var6 (* (- 1) var2 ) ) ) ) ) ) ) ) ) ) ) ) ) )
(assert (forall ((var0 Int)) (forall ((var1 Int)) (forall ((var2 Int)) (forall ((var3 Int)) (forall ((var4 Int)) (forall ((var5 Int)) (forall ((var6 Int)) (not (and (inv_main22 var5 var6 var2 var0 var1 var4 var3 ) (not (<= 0 (+ var2 (- 1) ) ) ) ) ) ) ) ) ) ) ) ) )
(assert (forall ((var0 Int)) (forall ((var1 Int)) (forall ((var2 Int)) (forall ((var3 Int)) (forall ((var4 Int)) (forall ((var5 Int)) (forall ((var6 Int)) (not (and (inv_main62 var5 var6 var2 var0 var1 var4 var3 ) (not (<= 0 (+ var3 (* (- 1) var2 ) ) ) ) ) ) ) ) ) ) ) ) ) )
(assert (forall ((var0 Int)) (forall ((var1 Int)) (forall ((var2 Int)) (forall ((var3 Int)) (forall ((var4 Int)) (forall ((var5 Int)) (forall ((var6 Int)) (not (and (inv_main63 var5 var6 var2 var0 var1 var4 var3 ) (not (<= 0 (+ var2 (- 1) ) ) ) ) ) ) ) ) ) ) ) ) )
(assert (forall ((var0 Int)) (forall ((var1 Int)) (forall ((var2 Int)) (forall ((var3 Int)) (forall ((var4 Int)) (forall ((var5 Int)) (forall ((var6 Int)) (not (and (inv_main64 var5 var6 var2 var0 var1 var4 var3 ) (not (<= 0 (+ var6 (* (- 1) var2 ) ) ) ) ) ) ) ) ) ) ) ) ) )
(check-sat)
